CONTROL {
  calculation = 'scf' 
       outdir = 'Si_example/'
   pseudo_dir = '/opt/espresso/pseudo'
} 
 
SYSTEM {
        ibrav = 2
    celldm(1) = 10.2
          nat = 2
         ntyp = 1
      ecutwfc = 18.0 
      ecutrho = 4*18.0 
}

ELECTRONS {
      conv_thr = 1d-7
}

ATOMIC_SPECIES {
   Si  1.00  Si.pz-vbc.UPF 
}
ATOMIC_POSITIONS alat {
   Si    0.0   0.0   0.0
   Si    1/4   1/4   1/4
}
K_POINTS automatic {
   4 4 4   1 1 1 
}

runPW scf.Si.in
